SCIP version 5.0.0 [precision: 8 byte] [memory: block] [mode: optimized] [LP solver: NONE] [GitHash: 3bbd232]
Copyright (C) 2002-2017 Konrad-Zuse-Zentrum fuer Informationstechnik Berlin (ZIB)

External codes: 
  Readline 6.3         GNU library for command line editing (gnu.org/s/readline)
  CppAD 20160000.1     Algorithmic Differentiation of C++ algorithms developed by B. Bell (www.coin-or.org/CppAD)
  ZLIB 1.2.8           General purpose compression library by J. Gailly and M. Adler (zlib.net)
  GMP 6.1.0            GNU Multiple Precision Arithmetic Library developed by T. Granlund (gmplib.org)

user parameter file <scip.set> not found - using default parameters

read problem <../../data/seismic-bumps.logreg>
============

File name	:	../../data/seismic-bumps.logreg
Problem name 	:	seismic-bumps
Number of data	:	2584
Number of var	:	21
The given data has linear dependence
4 sets of column vector are linearly dependent:
{ 2 3}, { 4 5 6}, { 7 8}, { 13 14 15}, 

[dim=1] time: 0.170623
[dim=2] time: 0.310461
[dim=3] time: 0.439785
[dim=4] time: 0.557107
[dim=5] time: 0.664595
[dim=6] time: 0.727375
[dim=7] time: 0.792627
[dim=8] time: 0.844396
[dim=9] time: 0.884542
[dim=10] Time of forward = 0.920309sec.
AIC: 1097.37
k: 9

[dim=17] time: 0.190875
[dim=16] time: 0.28341
[dim=15] time: 0.359205
[dim=14] time: 0.424336
[dim=13] time: 0.469723
[dim=12] Time of backward = 0.540785sec.
AIC: 1100.66
k: 13
